NAME : 0
COMMENT : CVRP Instance
TYPE : CVRP
DIMENSION : 586
EDGE_WEIGHT_TYPE : EUC_2D
CAPACITY : 28
NODE_COORD_SECTION
1	18.0	761.0
2	835.0	397.0
3	299.0	16.0
4	31.0	168.0
5	142.0	257.0
6	242.0	984.0
7	612.0	357.0
8	663.0	812.0
9	105.0	188.0
10	487.0	636.0
11	993.0	703.0
12	672.0	148.0
13	506.0	259.0
14	953.0	706.0
15	888.0	203.0
16	107.0	534.0
17	772.0	692.0
18	475.0	182.0
19	828.0	775.0
20	719.0	220.0
21	655.0	722.0
22	844.0	197.0
23	918.0	600.0
24	460.0	844.0
25	739.0	102.0
26	301.0	523.0
27	341.0	627.0
28	989.0	936.0
29	935.0	602.0
30	44.0	72.0
31	861.0	67.0
32	163.0	416.0
33	981.0	503.0
34	722.0	397.0
35	317.0	903.0
36	547.0	95.0
37	944.0	106.0
38	935.0	192.0
39	128.0	376.0
40	908.0	176.0
41	720.0	226.0
42	738.0	793.0
43	791.0	498.0
44	712.0	751.0
45	530.0	693.0
46	141.0	673.0
47	380.0	544.0
48	634.0	301.0
49	427.0	853.0
50	606.0	949.0
51	47.0	557.0
52	48.0	202.0
53	791.0	67.0
54	546.0	876.0
55	526.0	842.0
56	535.0	216.0
57	828.0	214.0
58	829.0	352.0
59	623.0	473.0
60	374.0	1000.0
61	74.0	187.0
62	275.0	415.0
63	726.0	789.0
64	51.0	597.0
65	894.0	395.0
66	159.0	743.0
67	301.0	893.0
68	755.0	946.0
69	978.0	261.0
70	709.0	153.0
71	391.0	153.0
72	876.0	370.0
73	846.0	725.0
74	604.0	107.0
75	117.0	709.0
76	507.0	89.0
77	348.0	744.0
78	476.0	204.0
79	181.0	957.0
80	948.0	710.0
81	158.0	788.0
82	414.0	685.0
83	358.0	66.0
84	196.0	732.0
85	283.0	343.0
86	456.0	931.0
87	5.0	468.0
88	459.0	43.0
89	555.0	414.0
90	94.0	964.0
91	558.0	360.0
92	641.0	424.0
93	132.0	16.0
94	777.0	947.0
95	25.0	205.0
96	852.0	45.0
97	5.0	686.0
98	400.0	682.0
99	501.0	234.0
100	905.0	968.0
101	492.0	971.0
102	817.0	114.0
103	651.0	941.0
104	817.0	643.0
105	735.0	937.0
106	333.0	829.0
107	223.0	584.0
108	306.0	412.0
109	209.0	663.0
110	206.0	549.0
111	542.0	691.0
112	296.0	10.0
113	215.0	747.0
114	148.0	641.0
115	9.0	553.0
116	411.0	59.0
117	382.0	800.0
118	824.0	612.0
119	608.0	727.0
120	481.0	574.0
121	169.0	950.0
122	350.0	608.0
123	396.0	536.0
124	36.0	459.0
125	359.0	339.0
126	798.0	917.0
127	10.0	569.0
128	813.0	10.0
129	569.0	627.0
130	692.0	467.0
131	166.0	178.0
132	247.0	413.0
133	738.0	487.0
134	508.0	327.0
135	158.0	986.0
136	983.0	244.0
137	637.0	109.0
138	177.0	207.0
139	357.0	374.0
140	361.0	972.0
141	365.0	701.0
142	582.0	957.0
143	712.0	996.0
144	932.0	452.0
145	847.0	981.0
146	60.0	66.0
147	252.0	267.0
148	944.0	435.0
149	338.0	688.0
150	900.0	168.0
151	583.0	871.0
152	852.0	59.0
153	921.0	72.0
154	845.0	534.0
155	387.0	253.0
156	812.0	354.0
157	5.0	404.0
158	590.0	575.0
159	930.0	128.0
160	184.0	742.0
161	832.0	466.0
162	285.0	346.0
163	548.0	976.0
164	32.0	531.0
165	966.0	58.0
166	31.0	40.0
167	162.0	539.0
168	621.0	425.0
169	802.0	495.0
170	385.0	493.0
171	769.0	329.0
172	921.0	15.0
173	64.0	106.0
174	854.0	678.0
175	943.0	122.0
176	103.0	285.0
177	304.0	739.0
178	398.0	212.0
179	335.0	459.0
180	43.0	108.0
181	400.0	255.0
182	935.0	851.0
183	179.0	147.0
184	822.0	749.0
185	60.0	32.0
186	829.0	992.0
187	783.0	760.0
188	218.0	360.0
189	321.0	463.0
190	403.0	172.0
191	32.0	134.0
192	218.0	490.0
193	44.0	456.0
194	430.0	570.0
195	896.0	875.0
196	509.0	572.0
197	424.0	936.0
198	639.0	505.0
199	914.0	852.0
200	984.0	435.0
201	479.0	341.0
202	207.0	937.0
203	709.0	700.0
204	235.0	795.0
205	557.0	130.0
206	270.0	964.0
207	482.0	320.0
208	60.0	761.0
209	836.0	272.0
210	413.0	327.0
211	509.0	379.0
212	961.0	329.0
213	819.0	754.0
214	176.0	910.0
215	648.0	809.0
216	640.0	892.0
217	838.0	79.0
218	552.0	232.0
219	831.0	306.0
220	503.0	726.0
221	555.0	765.0
222	486.0	958.0
223	571.0	837.0
224	162.0	504.0
225	458.0	845.0
226	378.0	389.0
227	458.0	127.0
228	929.0	786.0
229	364.0	368.0
230	579.0	971.0
231	662.0	173.0
232	320.0	524.0
233	919.0	901.0
234	894.0	787.0
235	428.0	736.0
236	554.0	560.0
237	94.0	22.0
238	82.0	61.0
239	581.0	840.0
240	54.0	127.0
241	693.0	830.0
242	355.0	662.0
243	24.0	276.0
244	946.0	348.0
245	844.0	433.0
246	877.0	594.0
247	238.0	103.0
248	556.0	739.0
249	503.0	462.0
250	264.0	505.0
251	782.0	143.0
252	919.0	703.0
253	958.0	559.0
254	90.0	181.0
255	794.0	485.0
256	267.0	35.0
257	322.0	883.0
258	376.0	52.0
259	487.0	982.0
260	541.0	423.0
261	36.0	607.0
262	101.0	687.0
263	657.0	754.0
264	880.0	943.0
265	372.0	421.0
266	695.0	294.0
267	174.0	686.0
268	128.0	560.0
269	926.0	32.0
270	540.0	223.0
271	490.0	930.0
272	334.0	635.0
273	125.0	661.0
274	473.0	467.0
275	129.0	401.0
276	247.0	415.0
277	725.0	544.0
278	284.0	155.0
279	200.0	281.0
280	822.0	540.0
281	306.0	433.0
282	216.0	59.0
283	887.0	520.0
284	714.0	539.0
285	780.0	97.0
286	464.0	94.0
287	951.0	329.0
288	785.0	333.0
289	886.0	820.0
290	677.0	811.0
291	232.0	689.0
292	595.0	733.0
293	690.0	901.0
294	457.0	905.0
295	149.0	843.0
296	914.0	940.0
297	87.0	154.0
298	868.0	966.0
299	492.0	778.0
300	106.0	127.0
301	735.0	816.0
302	108.0	897.0
303	37.0	189.0
304	143.0	876.0
305	192.0	855.0
306	898.0	931.0
307	484.0	891.0
308	225.0	887.0
309	845.0	927.0
310	87.0	156.0
311	332.0	670.0
312	178.0	109.0
313	16.0	13.0
314	17.0	419.0
315	986.0	893.0
316	54.0	851.0
317	2.0	931.0
318	73.0	853.0
319	603.0	900.0
320	495.0	820.0
321	156.0	825.0
322	452.0	820.0
323	846.0	825.0
324	625.0	965.0
325	409.0	900.0
326	474.0	942.0
327	350.0	832.0
328	267.0	929.0
329	121.0	149.0
330	456.0	850.0
331	86.0	109.0
332	184.0	186.0
333	475.0	917.0
334	83.0	123.0
335	254.0	899.0
336	132.0	768.0
337	437.0	848.0
338	867.0	938.0
339	936.0	945.0
340	140.0	810.0
341	431.0	895.0
342	951.0	961.0
343	449.0	950.0
344	186.0	798.0
345	908.0	949.0
346	322.0	852.0
347	913.0	937.0
348	934.0	958.0
349	270.0	978.0
350	159.0	863.0
351	954.0	920.0
352	389.0	874.0
353	273.0	852.0
354	900.0	963.0
355	881.0	878.0
356	181.0	113.0
357	478.0	868.0
358	464.0	902.0
359	563.0	823.0
360	149.0	130.0
361	162.0	793.0
362	444.0	918.0
363	136.0	138.0
364	541.0	906.0
365	155.0	868.0
366	34.0	189.0
367	130.0	980.0
368	237.0	386.0
369	190.0	854.0
370	182.0	825.0
371	520.0	908.0
372	517.0	985.0
373	815.0	899.0
374	539.0	823.0
375	55.0	50.0
376	498.0	853.0
377	86.0	140.0
378	121.0	190.0
379	253.0	850.0
380	72.0	175.0
381	155.0	903.0
382	744.0	860.0
383	479.0	941.0
384	44.0	63.0
385	43.0	203.0
386	115.0	299.0
387	906.0	933.0
388	121.0	875.0
389	139.0	818.0
390	185.0	933.0
391	5.0	191.0
392	152.0	860.0
393	81.0	163.0
394	840.0	863.0
395	15.0	221.0
396	366.0	999.0
397	898.0	981.0
398	214.0	965.0
399	677.0	912.0
400	471.0	869.0
401	188.0	671.0
402	312.0	929.0
403	976.0	943.0
404	51.0	48.0
405	421.0	911.0
406	40.0	708.0
407	116.0	814.0
408	72.0	266.0
409	183.0	409.0
410	100.0	88.0
411	424.0	921.0
412	877.0	967.0
413	458.0	890.0
414	27.0	179.0
415	171.0	936.0
416	932.0	1000.0
417	455.0	869.0
418	463.0	837.0
419	846.0	959.0
420	435.0	847.0
421	353.0	670.0
422	187.0	752.0
423	464.0	978.0
424	145.0	830.0
425	126.0	826.0
426	137.0	85.0
427	128.0	303.0
428	59.0	408.0
429	319.0	870.0
430	887.0	957.0
431	240.0	175.0
432	473.0	816.0
433	132.0	885.0
434	138.0	202.0
435	406.0	825.0
436	388.0	728.0
437	78.0	745.0
438	181.0	842.0
439	287.0	734.0
440	173.0	850.0
441	144.0	150.0
442	181.0	611.0
443	105.0	862.0
444	261.0	116.0
445	444.0	964.0
446	367.0	966.0
447	188.0	819.0
448	7.0	136.0
449	947.0	934.0
450	127.0	532.0
451	408.0	873.0
452	808.0	928.0
453	430.0	951.0
454	109.0	846.0
455	94.0	257.0
456	33.0	885.0
457	170.0	97.0
458	7.0	126.0
459	916.0	902.0
460	432.0	821.0
461	181.0	936.0
462	887.0	864.0
463	494.0	876.0
464	128.0	179.0
465	464.0	900.0
466	493.0	815.0
467	229.0	847.0
468	322.0	943.0
469	343.0	786.0
470	143.0	863.0
471	153.0	220.0
472	135.0	147.0
473	321.0	964.0
474	895.0	939.0
475	88.0	881.0
476	128.0	913.0
477	201.0	898.0
478	912.0	951.0
479	105.0	265.0
480	32.0	133.0
481	428.0	946.0
482	21.0	156.0
483	47.0	175.0
484	70.0	772.0
485	459.0	932.0
486	165.0	773.0
487	907.0	938.0
488	146.0	938.0
489	76.0	832.0
490	34.0	140.0
491	900.0	958.0
492	215.0	989.0
493	444.0	821.0
494	963.0	961.0
495	914.0	869.0
496	102.0	310.0
497	126.0	686.0
498	819.0	967.0
499	282.0	720.0
500	113.0	780.0
501	3.0	828.0
502	148.0	924.0
503	58.0	878.0
504	421.0	731.0
505	513.0	812.0
506	497.0	906.0
507	177.0	909.0
508	227.0	897.0
509	96.0	713.0
510	437.0	876.0
511	91.0	807.0
512	789.0	981.0
513	139.0	857.0
514	996.0	910.0
515	90.0	87.0
516	578.0	807.0
517	833.0	865.0
518	171.0	858.0
519	138.0	750.0
520	899.0	754.0
521	100.0	148.0
522	195.0	895.0
523	67.0	143.0
524	843.0	872.0
525	203.0	473.0
526	480.0	960.0
527	258.0	899.0
528	127.0	344.0
529	471.0	906.0
530	461.0	949.0
531	437.0	847.0
532	921.0	944.0
533	465.0	817.0
534	951.0	979.0
535	102.0	191.0
536	84.0	185.0
537	377.0	879.0
538	901.0	927.0
539	660.0	782.0
540	171.0	812.0
541	35.0	216.0
542	119.0	848.0
543	484.0	921.0
544	74.0	67.0
545	440.0	953.0
546	110.0	175.0
547	617.0	832.0
548	61.0	876.0
549	138.0	815.0
550	617.0	787.0
551	501.0	842.0
552	390.0	969.0
553	107.0	781.0
554	92.0	163.0
555	211.0	853.0
556	59.0	73.0
557	913.0	979.0
558	387.0	735.0
559	846.0	908.0
560	121.0	746.0
561	419.0	942.0
562	128.0	998.0
563	517.0	952.0
564	922.0	942.0
565	485.0	904.0
566	586.0	955.0
567	40.0	118.0
568	461.0	891.0
569	474.0	852.0
570	234.0	798.0
571	138.0	137.0
572	132.0	126.0
573	101.0	147.0
574	131.0	189.0
575	112.0	842.0
576	509.0	895.0
577	144.0	868.0
578	481.0	981.0
579	854.0	903.0
580	160.0	987.0
581	98.0	917.0
582	78.0	766.0
583	422.0	862.0
584	81.0	228.0
585	842.0	959.0
586	148.0	846.0
DEMAND_SECTION
1	0
2	9
3	7
4	6
5	5
6	7
7	10
8	9
9	8
10	9
11	8
12	6
13	6
14	5
15	10
16	9
17	7
18	9
19	7
20	9
21	6
22	5
23	7
24	10
25	7
26	6
27	9
28	9
29	10
30	7
31	7
32	9
33	10
34	5
35	6
36	8
37	10
38	8
39	5
40	8
41	10
42	8
43	10
44	7
45	5
46	8
47	9
48	7
49	10
50	5
51	6
52	10
53	9
54	9
55	10
56	6
57	8
58	10
59	9
60	10
61	9
62	7
63	5
64	8
65	10
66	6
67	9
68	5
69	7
70	8
71	8
72	10
73	10
74	5
75	8
76	8
77	8
78	6
79	10
80	6
81	9
82	7
83	9
84	10
85	6
86	9
87	6
88	10
89	5
90	9
91	8
92	5
93	5
94	5
95	10
96	5
97	8
98	6
99	6
100	10
101	6
102	5
103	10
104	7
105	9
106	5
107	8
108	8
109	6
110	5
111	6
112	5
113	6
114	6
115	7
116	8
117	6
118	6
119	10
120	7
121	10
122	8
123	7
124	6
125	7
126	10
127	9
128	8
129	8
130	10
131	10
132	6
133	10
134	7
135	6
136	9
137	8
138	9
139	6
140	9
141	10
142	10
143	7
144	8
145	6
146	9
147	7
148	8
149	7
150	9
151	9
152	8
153	6
154	7
155	8
156	9
157	7
158	5
159	7
160	6
161	6
162	5
163	6
164	6
165	10
166	5
167	5
168	7
169	7
170	9
171	10
172	6
173	10
174	9
175	6
176	6
177	9
178	9
179	6
180	8
181	5
182	9
183	8
184	10
185	5
186	6
187	6
188	8
189	7
190	6
191	9
192	6
193	7
194	8
195	6
196	10
197	9
198	6
199	7
200	5
201	6
202	6
203	10
204	5
205	9
206	6
207	8
208	9
209	10
210	6
211	10
212	5
213	10
214	7
215	6
216	6
217	6
218	9
219	10
220	10
221	6
222	9
223	6
224	8
225	6
226	9
227	7
228	9
229	5
230	7
231	10
232	9
233	10
234	9
235	7
236	9
237	10
238	9
239	5
240	9
241	9
242	5
243	10
244	5
245	7
246	7
247	7
248	5
249	5
250	10
251	10
252	10
253	5
254	10
255	10
256	9
257	9
258	5
259	10
260	7
261	6
262	5
263	6
264	8
265	9
266	8
267	9
268	5
269	6
270	9
271	9
272	10
273	6
274	5
275	7
276	9
277	6
278	5
279	10
280	6
281	7
282	8
283	6
284	9
285	9
286	6
287	8
288	8
289	10
290	8
291	6
292	8
293	10
294	8
295	7
296	8
297	8
298	7
299	5
300	6
301	10
302	8
303	5
304	5
305	7
306	7
307	9
308	5
309	9
310	9
311	8
312	6
313	6
314	10
315	6
316	9
317	8
318	5
319	10
320	7
321	10
322	5
323	7
324	10
325	8
326	6
327	5
328	7
329	8
330	5
331	10
332	8
333	8
334	7
335	5
336	8
337	6
338	8
339	5
340	8
341	7
342	10
343	6
344	10
345	9
346	8
347	7
348	9
349	6
350	9
351	9
352	5
353	8
354	9
355	9
356	5
357	9
358	8
359	10
360	7
361	9
362	9
363	7
364	5
365	9
366	5
367	7
368	7
369	10
370	9
371	9
372	6
373	5
374	9
375	7
376	9
377	5
378	8
379	10
380	5
381	6
382	9
383	9
384	7
385	10
386	6
387	8
388	9
389	5
390	5
391	10
392	8
393	10
394	5
395	10
396	5
397	5
398	9
399	9
400	10
401	7
402	10
403	6
404	6
405	10
406	5
407	5
408	6
409	10
410	10
411	10
412	10
413	5
414	8
415	9
416	9
417	6
418	8
419	7
420	7
421	10
422	10
423	9
424	7
425	7
426	5
427	8
428	8
429	5
430	9
431	6
432	5
433	9
434	9
435	7
436	8
437	8
438	10
439	5
440	7
441	7
442	6
443	9
444	7
445	6
446	8
447	9
448	10
449	6
450	9
451	5
452	5
453	10
454	9
455	6
456	8
457	5
458	9
459	9
460	9
461	5
462	9
463	6
464	6
465	9
466	6
467	5
468	9
469	9
470	10
471	5
472	9
473	9
474	8
475	9
476	8
477	6
478	5
479	5
480	7
481	6
482	7
483	6
484	5
485	8
486	9
487	6
488	9
489	10
490	10
491	9
492	10
493	9
494	10
495	10
496	6
497	10
498	7
499	5
500	7
501	9
502	7
503	10
504	10
505	9
506	10
507	6
508	9
509	9
510	8
511	5
512	6
513	5
514	9
515	10
516	6
517	7
518	7
519	7
520	7
521	6
522	7
523	9
524	10
525	8
526	9
527	9
528	8
529	9
530	5
531	9
532	6
533	6
534	9
535	6
536	8
537	8
538	5
539	8
540	5
541	6
542	7
543	5
544	9
545	10
546	7
547	8
548	5
549	10
550	6
551	7
552	8
553	9
554	5
555	6
556	6
557	6
558	8
559	8
560	5
561	9
562	5
563	8
564	5
565	9
566	7
567	10
568	6
569	7
570	10
571	9
572	8
573	5
574	10
575	5
576	8
577	8
578	7
579	7
580	7
581	9
582	8
583	6
584	8
585	8
586	5
DEPOT_SECTION
1
-1
EOF
